100
3433
22 64
83 137
50 179
11 85
56 60
65 155
77 14
7 166
49 79
87 143
5 176
5 172
54 182
24 152
2 193
65 28
83 153
80 133
45 197
43 177
66 124
94 175
68 151
55 31
50 145
51 63
30 83
36 101
89 129
10 110
78 147
77 62
63 92
36 110
70 168
80 193
92 139
93 121
25 35
14 165
98 184
52 182
34 193
69 185
78 33
39 137
52 150
73 135
94 20
18 109
53 122
77 161
5 111
77 200
65 160
17 108
79 84
87 70
81 47
37 45
12 111
47 22
31 74
86 189
9 29
98 110
86 13
97 33
7 56
7 139
3 184
52 44
61 72
33 117
11 131
26 160
23 186
81 64
60 191
42 199
31 162
50 163
8 183
2 109
59 115
91 133
39 112
13 168
19 81
88 184
31 115
2 24
32 91
61 25
4 98
83 198
1 25
3 156
66 176
75 92
